%%
% Autogenerated by /opt/prj/battleships-ai/src/server/solver.py, instance 2 8x8 [9] #1 <x6zm>
% Source: https://www.puzzle-battleships.com/?size=2
%%

size = 8;
hints_num = 1;
hints = [| 4, 1 |];
ships_num = 9;

constr_rows = [4, 1, 4, 2, 1, 4, 2, 1];
constr_cols = [1, 6, 0, 1, 2, 5, 1, 3];

given_ships = [|
<>, <>, <>, <>, 1, |
<>, <>, <>, <>, 1, |
<>, <>, <>, <>, 1, |
<>, <>, <>, <>, 2, |
<>, <>, <>, <>, 2, |
<>, <>, <>, <>, 2, |
<>, <>, <>, <>, 3, |
<>, <>, <>, <>, 3, |
<>, <>, <>, <>, 4  |];

